c FILE /home/rafael/Documents/HappySet/MIHS/inputs/happygen/output/graph_d_regular_k5_p0.2_v100_20241127_084042.txt
c SOURCE This is a d-regular graph formed for the happy graph colouring problem.
c DESCRIPTION It was generated using the problem generator of Rhyd Lewis
c
c GRAPH STATS
c Seed                             = -1874304594
c Number of Nodes                  = 100
c Number of colours k              = 5
c Number of pre-assignments        = 20
c Degree of all vertices           = 6
c Density                          = 0.0606061
c 
c The degrees of nodes 1 to 100, respectively, are as follows 
c [6, 6, 6, 6, 6, 6, 6, 6, 6, 6, 6, 6, 6, 6, 6, 6, 6, 6, 6, 6, 6, 6, 6, 6, 6, 6, 
c  6, 6, 6, 6, 6, 6, 6, 6, 6, 6, 6, 6, 6, 6, 6, 6, 6, 6, 6, 6, 6, 6, 6, 6, 6, 
c  6, 6, 6, 6, 6, 6, 6, 6, 6, 6, 6, 6, 6, 6, 6, 6, 6, 6, 6, 6, 6, 6, 6, 6, 6, 
c  6, 6, 6, 6, 6, 6, 6, 6, 6, 6, 6, 6, 6, 6, 6, 6, 6, 6, 6, 6, 6, 6, 6, 6] 
c  
p edge 100 300 5
e 1 16
e 1 39
e 1 61
e 1 67
e 1 85
e 1 92
e 2 8
e 2 23
e 2 26
e 2 62
e 2 66
e 2 78
e 3 5
e 3 31
e 3 33
e 3 42
e 3 69
e 3 93
e 4 6
e 4 23
e 4 34
e 4 69
e 4 79
e 4 86
e 5 57
e 5 70
e 5 76
e 5 84
e 5 87
e 6 23
e 6 38
e 6 61
e 6 65
e 6 71
e 7 22
e 7 62
e 7 73
e 7 74
e 7 79
e 7 80
e 8 10
e 8 40
e 8 52
e 8 53
e 8 95
e 9 10
e 9 41
e 9 54
e 9 60
e 9 63
e 9 77
e 10 34
e 10 85
e 10 94
e 10 96
e 11 24
e 11 36
e 11 55
e 11 62
e 11 85
e 11 97
e 12 22
e 12 24
e 12 37
e 12 47
e 12 49
e 12 80
e 13 26
e 13 29
e 13 43
e 13 46
e 13 72
e 13 91
e 14 34
e 14 43
e 14 63
e 14 72
e 14 73
e 14 86
e 15 20
e 15 40
e 15 44
e 15 48
e 15 51
e 15 57
e 16 25
e 16 32
e 16 53
e 16 93
e 16 97
e 17 19
e 17 34
e 17 64
e 17 85
e 17 98
e 17 99
e 18 24
e 18 40
e 18 45
e 18 64
e 18 67
e 18 86
e 19 30
e 19 35
e 19 50
e 19 61
e 19 90
e 20 33
e 20 35
e 20 46
e 20 73
e 20 96
e 21 38
e 21 46
e 21 50
e 21 59
e 21 72
e 21 90
e 22 31
e 22 33
e 22 36
e 22 63
e 23 43
e 23 65
e 23 97
e 24 54
e 24 76
e 24 91
e 25 41
e 25 62
e 25 63
e 25 88
e 25 94
e 26 58
e 26 66
e 26 96
e 26 100
e 27 48
e 27 51
e 27 57
e 27 78
e 27 88
e 27 89
e 28 29
e 28 44
e 28 45
e 28 58
e 28 68
e 28 75
e 29 32
e 29 75
e 29 88
e 29 94
e 30 43
e 30 64
e 30 67
e 30 77
e 30 88
e 31 70
e 31 73
e 31 82
e 31 95
e 32 40
e 32 64
e 32 71
e 32 82
e 33 56
e 33 72
e 33 98
e 34 52
e 34 100
e 35 36
e 35 40
e 35 49
e 35 92
e 36 42
e 36 43
e 36 81
e 37 39
e 37 63
e 37 72
e 37 86
e 37 94
e 38 55
e 38 61
e 38 76
e 38 98
e 39 74
e 39 75
e 39 77
e 39 80
e 40 58
e 41 43
e 41 70
e 41 78
e 41 93
e 42 45
e 42 68
e 42 69
e 42 75
e 44 58
e 44 70
e 44 82
e 44 90
e 45 50
e 45 95
e 45 96
e 46 53
e 46 66
e 46 78
e 47 50
e 47 67
e 47 76
e 47 79
e 47 83
e 48 65
e 48 71
e 48 79
e 48 87
e 49 60
e 49 68
e 49 89
e 49 96
e 50 78
e 50 95
e 51 57
e 51 60
e 51 62
e 51 79
e 52 66
e 52 89
e 52 90
e 52 98
e 53 83
e 53 93
e 53 100
e 54 59
e 54 71
e 54 75
e 54 83
e 55 61
e 55 69
e 55 87
e 55 93
e 56 58
e 56 68
e 56 74
e 56 85
e 56 99
e 57 64
e 57 89
e 58 91
e 59 61
e 59 79
e 59 85
e 59 91
e 60 73
e 60 74
e 60 77
e 62 83
e 63 89
e 64 94
e 65 90
e 65 91
e 65 99
e 66 86
e 66 96
e 67 81
e 67 100
e 68 89
e 68 98
e 69 80
e 69 82
e 70 81
e 70 82
e 71 77
e 71 94
e 72 84
e 73 81
e 74 84
e 74 97
e 75 80
e 76 92
e 76 99
e 77 87
e 78 93
e 80 88
e 81 84
e 81 97
e 82 97
e 83 84
e 83 92
e 84 100
e 86 95
e 87 92
e 87 98
e 88 91
e 90 99
e 92 95
e 99 100
n 2 2
n 3 4
n 10 2
n 12 3
n 14 4
n 22 3
n 36 3
n 40 5
n 46 4
n 50 2
n 58 5
n 60 2
n 64 2
n 75 1
n 79 4
n 84 4
n 90 2
n 94 2
n 95 2
n 100 4
